decision_x1=[0,4];
decision_x2=[0,4];
decision_x3=[0,4];
decision_x4=[0,4];
decision_x5=[0,4];
decision_x6=[0,4];
decision_x7=[0,4];
decision_x8=[0,4];
decision_x9=[0,4];
decision_x10=[0,4];
random_y1=[0,4];
random_y2=[0,4];
constraint_x3_x1=[
0,1,4.9|
0,2,3.7|
0,3,3.2|
0,4,2.7|
1,0,3.4|
1,2,3.6|
1,3,7.8|
1,4,5.3|
2,0,5.3|
2,1,0.44|
2,3,0.12|
2,4,8.5|
3,0,3.2|
3,1,6.7|
3,2,6.6|
3,4,4.6|
4,0,0.077|
4,1,6.2|
4,2,5.7|
4,3,9.4|
];
constraint_x3_x2=[
0,1,9|
0,2,5.6|
0,3,2.6|
0,4,9.9|
1,0,7.6|
1,2,3.4|
1,3,7.5|
1,4,5.2|
2,0,4.2|
2,1,6.8|
2,3,9.7|
2,4,6.7|
3,0,7|
3,1,3.2|
3,2,3.1|
3,4,3.7|
4,0,7.1|
4,1,2.6|
4,2,1.5|
4,3,2.8|
];
constraint_x4_x2=[
0,1,0.48|
0,2,4.1|
0,3,8.9|
0,4,3.2|
1,0,2.3|
1,2,2.7|
1,3,1.3|
1,4,3.4|
2,0,6.3|
2,1,4|
2,3,1.8|
2,4,7.5|
3,0,1.9|
3,1,9|
3,2,4.6|
3,4,9.5|
4,0,1.6|
4,1,0.36|
4,2,6.2|
4,3,5.1|
];
constraint_x5_x1=[
0,1,9.7|
0,2,8.5|
0,3,1.4|
0,4,2.3|
1,0,9.5|
1,2,0.17|
1,3,7.5|
1,4,9.8|
2,0,0.33|
2,1,0.035|
2,3,5.4|
2,4,1.5|
3,0,7.1|
3,1,8.8|
3,2,4.2|
3,4,5.6|
4,0,9.5|
4,1,5.1|
4,2,1.9|
4,3,4.9|
];
constraint_x5_x2=[
0,1,8.3|
0,2,6.1|
0,3,8.1|
0,4,3.4|
1,0,7.2|
1,2,1.8|
1,3,6.5|
1,4,7.9|
2,0,1.5|
2,1,9|
2,3,0.067|
2,4,4|
3,0,7.9|
3,1,6.3|
3,2,1.8|
3,4,9|
4,0,4.7|
4,1,4.5|
4,2,6.3|
4,3,2.4|
];
constraint_x6_x1=[
0,1,0.64|
0,2,2.8|
0,3,3.7|
0,4,6.2|
1,0,7|
1,2,7.1|
1,3,8.5|
1,4,1.7|
2,0,9.8|
2,1,2.9|
2,3,4|
2,4,3.5|
3,0,9.5|
3,1,7|
3,2,8.5|
3,4,2.1|
4,0,4.2|
4,1,0.74|
4,2,8|
4,3,8.1|
];
constraint_x6_x2=[
0,1,4.7|
0,2,3.3|
0,3,2.2|
0,4,1.3|
1,0,5.5|
1,2,8.8|
1,3,7.3|
1,4,9.2|
2,0,8.4|
2,1,2.4|
2,3,1.8|
2,4,2.8|
3,0,0.83|
3,1,4.7|
3,2,2.7|
3,4,6.1|
4,0,5.3|
4,1,4.5|
4,2,1.5|
4,3,7.9|
];
constraint_x7_x1=[
0,1,1.6|
0,2,8|
0,3,9.8|
0,4,6.1|
1,0,7.9|
1,2,7.8|
1,3,5.5|
1,4,2.8|
2,0,8.3|
2,1,5.2|
2,3,1.8|
2,4,9.4|
3,0,5.4|
3,1,0.71|
3,2,0.32|
3,4,3.5|
4,0,1.1|
4,1,5.1|
4,2,0.54|
4,3,7.2|
];
constraint_x7_x2=[
0,1,9.3|
0,2,1.1|
0,3,7.5|
0,4,7.2|
1,0,0.37|
1,2,9|
1,3,9.3|
1,4,8.9|
2,0,0.24|
2,1,1.7|
2,3,4.1|
2,4,0.51|
3,0,3.3|
3,1,2.1|
3,2,9.2|
3,4,6.5|
4,0,4|
4,1,7.1|
4,2,3.3|
4,3,3|
];
constraint_x7_x3=[
0,1,5.1|
0,2,2.5|
0,3,3|
0,4,7.7|
1,0,9.9|
1,2,8.7|
1,3,0.22|
1,4,9.8|
2,0,3.4|
2,1,6.1|
2,3,5.9|
2,4,5|
3,0,3.9|
3,1,8.2|
3,2,0.71|
3,4,5|
4,0,7.2|
4,1,7.5|
4,2,6.3|
4,3,9|
];
constraint_x7_x4=[
0,1,9.2|
0,2,5.7|
0,3,3.1|
0,4,6.5|
1,0,0.88|
1,2,1|
1,3,9.1|
1,4,3.5|
2,0,5.1|
2,1,3.7|
2,3,1.8|
2,4,4.5|
3,0,8.6|
3,1,4.8|
3,2,8|
3,4,0.53|
4,0,7.6|
4,1,5.3|
4,2,5.2|
4,3,5.7|
];
constraint_x7_x6=[
0,1,1.9|
0,2,0.72|
0,3,5.9|
0,4,7.6|
1,0,7.2|
1,2,2.5|
1,3,4.9|
1,4,6.5|
2,0,6.3|
2,1,5.3|
2,3,7.2|
2,4,2|
3,0,6|
3,1,9.8|
3,2,5.4|
3,4,6|
4,0,2.3|
4,1,1.2|
4,2,5|
4,3,0.93|
];
constraint_x8_x3=[
0,1,3.3|
0,2,6.5|
0,3,3.5|
0,4,5.3|
1,0,0.33|
1,2,8.4|
1,3,7.9|
1,4,5.2|
2,0,2|
2,1,2.6|
2,3,2.2|
2,4,1.8|
3,0,3.5|
3,1,3.1|
3,2,7.8|
3,4,1.7|
4,0,2.1|
4,1,3.6|
4,2,1.6|
4,3,8.9|
];
constraint_x8_x4=[
0,1,2.3|
0,2,1.2|
0,3,6.9|
0,4,7.3|
1,0,2.3|
1,2,1.7|
1,3,6.7|
1,4,8.5|
2,0,4.6|
2,1,6.2|
2,3,2|
2,4,2.5|
3,0,0.21|
3,1,2.7|
3,2,6.8|
3,4,5.1|
4,0,7.4|
4,1,9|
4,2,2.5|
4,3,6.2|
];
constraint_x8_x6=[
0,1,3.9|
0,2,7.7|
0,3,8.8|
0,4,0.4|
1,0,4.1|
1,2,8.9|
1,3,6|
1,4,2.4|
2,0,5.3|
2,1,3.6|
2,3,4.1|
2,4,9.5|
3,0,3.2|
3,1,0.4|
3,2,4.3|
3,4,8.1|
4,0,8.7|
4,1,1.5|
4,2,8.1|
4,3,3.7|
];
constraint_x9_x1=[
0,1,4.1|
0,2,9|
0,3,3.8|
0,4,3|
1,0,0.039|
1,2,6.2|
1,3,3.3|
1,4,2.7|
2,0,8.5|
2,1,3.2|
2,3,4|
2,4,5.9|
3,0,5|
3,1,6.9|
3,2,5|
3,4,3.7|
4,0,9.3|
4,1,6.9|
4,2,0.11|
4,3,3.5|
];
constraint_x9_x3=[
0,1,7.1|
0,2,9.2|
0,3,9.9|
0,4,4|
1,0,3.7|
1,2,2.6|
1,3,2.4|
1,4,5.4|
2,0,0.021|
2,1,5.5|
2,3,1.5|
2,4,2.9|
3,0,6.6|
3,1,3.1|
3,2,9.3|
3,4,4.2|
4,0,7.8|
4,1,1.5|
4,2,3.6|
4,3,8.6|
];
constraint_x9_x4=[
0,1,5.2|
0,2,7.5|
0,3,7.1|
0,4,3.9|
1,0,9|
1,2,0.23|
1,3,6.8|
1,4,8.1|
2,0,4.5|
2,1,1.3|
2,3,0.013|
2,4,4.4|
3,0,0.76|
3,1,3.1|
3,2,2.6|
3,4,3.4|
4,0,1.9|
4,1,3.8|
4,2,4.5|
4,3,8.3|
];
constraint_x9_x6=[
0,1,6.6|
0,2,1.6|
0,3,1.5|
0,4,9.9|
1,0,6.1|
1,2,3.3|
1,3,9.4|
1,4,9.8|
2,0,7.5|
2,1,8.4|
2,3,7.4|
2,4,5|
3,0,7.4|
3,1,2.5|
3,2,5.6|
3,4,7.1|
4,0,5.1|
4,1,1.7|
4,2,0.67|
4,3,4.2|
];
constraint_x9_x7=[
0,1,8.9|
0,2,3.3|
0,3,3.4|
0,4,3.9|
1,0,5.3|
1,2,2.2|
1,3,3.9|
1,4,6.4|
2,0,0.41|
2,1,4.4|
2,3,3.2|
2,4,7.9|
3,0,5|
3,1,7.1|
3,2,8.6|
3,4,4.1|
4,0,5.3|
4,1,3.1|
4,2,0.9|
4,3,1.6|
];
constraint_x10_x7=[
0,1,9.6|
0,2,1.3|
0,3,6.1|
0,4,4.5|
1,0,0.038|
1,2,2.9|
1,3,3.3|
1,4,5.2|
2,0,7.4|
2,1,6.9|
2,3,9.7|
2,4,3.7|
3,0,4.5|
3,1,0.78|
3,2,9.6|
3,4,1.9|
4,0,6.3|
4,1,7.9|
4,2,1.9|
4,3,0.98|
];
constraint_x10_x8=[
0,1,9.9|
0,2,6.8|
0,3,3.3|
0,4,0.65|
1,0,4.1|
1,2,1|
1,3,6.7|
1,4,3.4|
2,0,0.13|
2,1,3.7|
2,3,7|
2,4,7.7|
3,0,3.1|
3,1,9.1|
3,2,6.1|
3,4,0.56|
4,0,7.4|
4,1,4.8|
4,2,5.2|
4,3,2.2|
];
constraint_x10_x9=[
0,1,1.5|
0,2,3|
0,3,7.5|
0,4,4.7|
1,0,9.8|
1,2,6.6|
1,3,1.7|
1,4,4.9|
2,0,6.5|
2,1,0.58|
2,3,3.4|
2,4,8.5|
3,0,5.1|
3,1,8|
3,2,2.4|
3,4,0.075|
4,0,4.1|
4,1,2.4|
4,2,7.5|
4,3,1.5|
];
constraint_x1_y1=[
0,0,3.8|
0,1,9.2|
0,2,6.8|
0,3,2.9|
0,4,2.5|
1,0,1.7|
1,1,3.4|
1,2,5.6|
1,3,3.6|
1,4,8.5|
2,0,5.6|
2,1,6.4|
2,2,0.83|
2,3,0.49|
2,4,1.2|
3,0,4.9|
3,1,0.59|
3,2,9.6|
3,3,3.9|
3,4,0.16|
4,0,5.2|
4,1,4.5|
4,2,5.5|
4,3,0.034|
4,4,9|
];
constraint_x2_y2=[
0,0,9|
0,1,2.9|
0,2,7.4|
0,3,7.6|
0,4,5.7|
1,0,1.5|
1,1,7.2|
1,2,9.8|
1,3,9.6|
1,4,0.97|
2,0,4.1|
2,1,10|
2,2,6.7|
2,3,8|
2,4,4.6|
3,0,9.5|
3,1,1.9|
3,2,5|
3,3,9.2|
3,4,1.2|
4,0,5.5|
4,1,4.6|
4,2,4.4|
4,3,5.7|
4,4,7.8|
];
initial_distribution_y1=[0.2,0.16,0.13,0.24,0.26];
initial_distribution_y2=[0.12,0.23,0.25,0.16,0.24];
transition_y1=[
0.021,0.14,0.21,0.29,0.34|
0.29,0.093,0.22,0.25,0.14|
0.29,0.36,0.091,0.22,0.04|
0.15,0.14,0.2,0.31,0.2|
0.023,0.26,0.12,0.3,0.3|
];
transition_y2=[
0.096,0.16,0.42,0.11,0.22|
0.042,0.035,0.077,0.21,0.63|
0.37,0.074,0.17,0.25,0.13|
0.085,0.35,0.057,0.32,0.18|
0.32,0.17,0.029,0.34,0.15|
];
